# Objective value = 15
WA1n 0
WA1p 0
WA2n 0
WA2p 1
WB1n 0
WB1p 0
WB2n 0
WB2p 1
WC1n 0
WC1p 0
WC2n 0
WC2p 1
WD1n 2
WD1p 0
WD2n 0
WD2p 0
WE1n 2
WE1p 0
WE2n 0
WE2p 0
WF1n 0
WF1p 1
WF2n 0
WF2p 1
WT1n 0
WT1p 2
100 100
a 1
b 1
c 1
d 1
e 1
f 1
g 0
h 0
i 0
j 0
k 1
l 1
m 1
